NAME: tsp50_12
COMMENT: 50-tsp problem (Padberg/Rinaldi)
TYPE: TSP
DIMENSION: 50
EDGE_WEIGHT_TYPE : EUC_2D
NODE_COORD_SECTION
1 33 3
2 28 29
3 28 6
4 31 23
5 13 6
6 25 7
7 34 17
8 22 40
9 29 9
10 20 6
11 27 32
12 35 3
13 24 13
14 35 25
15 34 15
16 13 3
17 15 19
18 24 14
19 20 34
20 15 23
21 8 40
22 33 36
23 8 26
24 34 1
25 16 35
26 35 28
27 34 39
28 27 2
29 13 33
30 5 9
31 0 1
32 25 32
33 16 12
34 15 20
35 19 9
36 31 26
37 20 17
38 28 14
39 39 32
40 33 32
41 39 39
42 18 21
43 28 33
44 25 27
45 18 0
46 26 29
47 5 9
48 37 8
49 29 35
50 36 13
